(declare-const p5_8 Real)
(declare-const income Real)
(declare-const fee_bl Real)
(declare-const p7_15 Real)
(declare-const p6_75 Real)
(assert (= p5_8 (* 0.058 (ite (> income 26800) 26800 income))))
(assert (= p6_75 (ite (> income 26800) (* 0.0675 (- (ite (> income 63450) 63450 income) 26800)) 0)))
(assert (= p7_15 (ite (> income 63450) (* 0.0715 (- income 63450)) 0)))
(assert (= fee_bl (+ (+ p5_8 p6_75) p7_15)))